(set-option :produce-models true)
(set-logic QF_LRA)
(set-info :notes | Strip-packing problem.|)
(declare-fun x0 () Real)
(declare-fun y0 () Real)
(declare-fun x1 () Real)
(declare-fun y1 () Real)
(declare-fun x2 () Real)
(declare-fun y2 () Real)
(declare-fun x3 () Real)
(declare-fun y3 () Real)
(declare-fun x4 () Real)
(declare-fun y4 () Real)
(declare-fun x5 () Real)
(declare-fun y5 () Real)
(declare-fun x6 () Real)
(declare-fun y6 () Real)
(declare-fun x7 () Real)
(declare-fun y7 () Real)
(declare-fun x8 () Real)
(declare-fun y8 () Real)
(declare-fun x9 () Real)
(declare-fun y9 () Real)
(declare-fun x10 () Real)
(declare-fun y10 () Real)
(declare-fun x11 () Real)
(declare-fun y11 () Real)
(declare-fun z () Real)
(declare-fun c () Real)
(assert (and (= c z) (and (>= x0 0) 
(and (>= y0 0) 
(and (>= x1 0) 
(and (>= y1 0) 
(and (>= x2 0) 
(and (>= y2 0) 
(and (>= x3 0) 
(and (>= y3 0) 
(and (>= x4 0) 
(and (>= y4 0) 
(and (>= x5 0) 
(and (>= y5 0) 
(and (>= x6 0) 
(and (>= y6 0) 
(and (>= x7 0) 
(and (>= y7 0) 
(and (>= x8 0) 
(and (>= y8 0) 
(and (>= x9 0) 
(and (>= y9 0) 
(and (>= x10 0) 
(and (>= y10 0) 
(and (>= x11 0) 
(and (>= y11 0) 
(and (>= z 0) 
(and (>= c 0) 
(and (<= (+ x0 0.6410036402) z) 
(and (<= 0.9424454704 y0) 
(and (<= y0 1.73205080757) 
(and (<= x0 (- 3.4890842367 0.6410036402)) 
(and (>= x0 0) 
(and (<= (+ x1 0.107566656) z) 
(and (<= 0.9164493232 y1) 
(and (<= y1 1.73205080757) 
(and (<= x1 (- 3.4890842367 0.107566656)) 
(and (>= x1 0) 
(and (<= (+ x2 0.9752330325) z) 
(and (<= 0.9142259137 y2) 
(and (<= y2 1.73205080757) 
(and (<= x2 (- 3.4890842367 0.9752330325)) 
(and (>= x2 0) 
(and (<= (+ x3 0.4699119899) z) 
(and (<= 0.8696970588 y3) 
(and (<= y3 1.73205080757) 
(and (<= x3 (- 3.4890842367 0.4699119899)) 
(and (>= x3 0) 
(and (<= (+ x4 0.2899917998) z) 
(and (<= 0.5787516384 y4) 
(and (<= y4 1.73205080757) 
(and (<= x4 (- 3.4890842367 0.2899917998)) 
(and (>= x4 0) 
(and (<= (+ x5 0.4079727731) z) 
(and (<= 0.5762525918 y5) 
(and (<= y5 1.73205080757) 
(and (<= x5 (- 3.4890842367 0.4079727731)) 
(and (>= x5 0) 
(and (<= (+ x6 0.8080028425) z) 
(and (<= 0.5554264261 y6) 
(and (<= y6 1.73205080757) 
(and (<= x6 (- 3.4890842367 0.8080028425)) 
(and (>= x6 0) 
(and (<= (+ x7 0.7789608268) z) 
(and (<= 0.5449670412 y7) 
(and (<= y7 1.73205080757) 
(and (<= x7 (- 3.4890842367 0.7789608268)) 
(and (>= x7 0) 
(and (<= (+ x8 0.2168976438) z) 
(and (<= 0.4108765172 y8) 
(and (<= y8 1.73205080757) 
(and (<= x8 (- 3.4890842367 0.2168976438)) 
(and (>= x8 0) 
(and (<= (+ x9 0.3420872899) z) 
(and (<= 0.3790085449 y9) 
(and (<= y9 1.73205080757) 
(and (<= x9 (- 3.4890842367 0.3420872899)) 
(and (>= x9 0) 
(and (<= (+ x10 0.4873660756) z) 
(and (<= 0.2657909212 y10) 
(and (<= y10 1.73205080757) 
(and (<= x10 (- 3.4890842367 0.4873660756)) 
(and (>= x10 0) 
(and (<= (+ x11 0.0751347484) z) 
(and (<= 0.051394222 y11) 
(and (<= y11 1.73205080757) 
(and (<= x11 (- 3.4890842367 0.0751347484)) 
(and (>= x11 0) 
(and (<= c 3.4890842367) 
(and (or (<= (+ x0 0.6410036402) x1) (or (<= (+ x1 0.107566656) x0) (or (>= (- y0 0.9424454704) y1) (or (>= (- y1 0.9164493232) y0))))) 
(and (or (<= (+ x0 0.6410036402) x2) (or (<= (+ x2 0.9752330325) x0) (or (>= (- y0 0.9424454704) y2) (or (>= (- y2 0.9142259137) y0))))) 
(and (or (<= (+ x0 0.6410036402) x3) (or (<= (+ x3 0.4699119899) x0) (or (>= (- y0 0.9424454704) y3) (or (>= (- y3 0.8696970588) y0))))) 
(and (or (<= (+ x0 0.6410036402) x4) (or (<= (+ x4 0.2899917998) x0) (or (>= (- y0 0.9424454704) y4) (or (>= (- y4 0.5787516384) y0))))) 
(and (or (<= (+ x0 0.6410036402) x5) (or (<= (+ x5 0.4079727731) x0) (or (>= (- y0 0.9424454704) y5) (or (>= (- y5 0.5762525918) y0))))) 
(and (or (<= (+ x0 0.6410036402) x6) (or (<= (+ x6 0.8080028425) x0) (or (>= (- y0 0.9424454704) y6) (or (>= (- y6 0.5554264261) y0))))) 
(and (or (<= (+ x0 0.6410036402) x7) (or (<= (+ x7 0.7789608268) x0) (or (>= (- y0 0.9424454704) y7) (or (>= (- y7 0.5449670412) y0))))) 
(and (or (<= (+ x0 0.6410036402) x8) (or (<= (+ x8 0.2168976438) x0) (or (>= (- y0 0.9424454704) y8) (or (>= (- y8 0.4108765172) y0))))) 
(and (or (<= (+ x0 0.6410036402) x9) (or (<= (+ x9 0.3420872899) x0) (or (>= (- y0 0.9424454704) y9) (or (>= (- y9 0.3790085449) y0))))) 
(and (or (<= (+ x0 0.6410036402) x10) (or (<= (+ x10 0.4873660756) x0) (or (>= (- y0 0.9424454704) y10) (or (>= (- y10 0.2657909212) y0))))) 
(and (or (<= (+ x0 0.6410036402) x11) (or (<= (+ x11 0.0751347484) x0) (or (>= (- y0 0.9424454704) y11) (or (>= (- y11 0.051394222) y0))))) 
(and (or (<= (+ x1 0.107566656) x2) (or (<= (+ x2 0.9752330325) x1) (or (>= (- y1 0.9164493232) y2) (or (>= (- y2 0.9142259137) y1))))) 
(and (or (<= (+ x1 0.107566656) x3) (or (<= (+ x3 0.4699119899) x1) (or (>= (- y1 0.9164493232) y3) (or (>= (- y3 0.8696970588) y1))))) 
(and (or (<= (+ x1 0.107566656) x4) (or (<= (+ x4 0.2899917998) x1) (or (>= (- y1 0.9164493232) y4) (or (>= (- y4 0.5787516384) y1))))) 
(and (or (<= (+ x1 0.107566656) x5) (or (<= (+ x5 0.4079727731) x1) (or (>= (- y1 0.9164493232) y5) (or (>= (- y5 0.5762525918) y1))))) 
(and (or (<= (+ x1 0.107566656) x6) (or (<= (+ x6 0.8080028425) x1) (or (>= (- y1 0.9164493232) y6) (or (>= (- y6 0.5554264261) y1))))) 
(and (or (<= (+ x1 0.107566656) x7) (or (<= (+ x7 0.7789608268) x1) (or (>= (- y1 0.9164493232) y7) (or (>= (- y7 0.5449670412) y1))))) 
(and (or (<= (+ x1 0.107566656) x8) (or (<= (+ x8 0.2168976438) x1) (or (>= (- y1 0.9164493232) y8) (or (>= (- y8 0.4108765172) y1))))) 
(and (or (<= (+ x1 0.107566656) x9) (or (<= (+ x9 0.3420872899) x1) (or (>= (- y1 0.9164493232) y9) (or (>= (- y9 0.3790085449) y1))))) 
(and (or (<= (+ x1 0.107566656) x10) (or (<= (+ x10 0.4873660756) x1) (or (>= (- y1 0.9164493232) y10) (or (>= (- y10 0.2657909212) y1))))) 
(and (or (<= (+ x1 0.107566656) x11) (or (<= (+ x11 0.0751347484) x1) (or (>= (- y1 0.9164493232) y11) (or (>= (- y11 0.051394222) y1))))) 
(and (or (<= (+ x2 0.9752330325) x3) (or (<= (+ x3 0.4699119899) x2) (or (>= (- y2 0.9142259137) y3) (or (>= (- y3 0.8696970588) y2))))) 
(and (or (<= (+ x2 0.9752330325) x4) (or (<= (+ x4 0.2899917998) x2) (or (>= (- y2 0.9142259137) y4) (or (>= (- y4 0.5787516384) y2))))) 
(and (or (<= (+ x2 0.9752330325) x5) (or (<= (+ x5 0.4079727731) x2) (or (>= (- y2 0.9142259137) y5) (or (>= (- y5 0.5762525918) y2))))) 
(and (or (<= (+ x2 0.9752330325) x6) (or (<= (+ x6 0.8080028425) x2) (or (>= (- y2 0.9142259137) y6) (or (>= (- y6 0.5554264261) y2))))) 
(and (or (<= (+ x2 0.9752330325) x7) (or (<= (+ x7 0.7789608268) x2) (or (>= (- y2 0.9142259137) y7) (or (>= (- y7 0.5449670412) y2))))) 
(and (or (<= (+ x2 0.9752330325) x8) (or (<= (+ x8 0.2168976438) x2) (or (>= (- y2 0.9142259137) y8) (or (>= (- y8 0.4108765172) y2))))) 
(and (or (<= (+ x2 0.9752330325) x9) (or (<= (+ x9 0.3420872899) x2) (or (>= (- y2 0.9142259137) y9) (or (>= (- y9 0.3790085449) y2))))) 
(and (or (<= (+ x2 0.9752330325) x10) (or (<= (+ x10 0.4873660756) x2) (or (>= (- y2 0.9142259137) y10) (or (>= (- y10 0.2657909212) y2))))) 
(and (or (<= (+ x2 0.9752330325) x11) (or (<= (+ x11 0.0751347484) x2) (or (>= (- y2 0.9142259137) y11) (or (>= (- y11 0.051394222) y2))))) 
(and (or (<= (+ x3 0.4699119899) x4) (or (<= (+ x4 0.2899917998) x3) (or (>= (- y3 0.8696970588) y4) (or (>= (- y4 0.5787516384) y3))))) 
(and (or (<= (+ x3 0.4699119899) x5) (or (<= (+ x5 0.4079727731) x3) (or (>= (- y3 0.8696970588) y5) (or (>= (- y5 0.5762525918) y3))))) 
(and (or (<= (+ x3 0.4699119899) x6) (or (<= (+ x6 0.8080028425) x3) (or (>= (- y3 0.8696970588) y6) (or (>= (- y6 0.5554264261) y3))))) 
(and (or (<= (+ x3 0.4699119899) x7) (or (<= (+ x7 0.7789608268) x3) (or (>= (- y3 0.8696970588) y7) (or (>= (- y7 0.5449670412) y3))))) 
(and (or (<= (+ x3 0.4699119899) x8) (or (<= (+ x8 0.2168976438) x3) (or (>= (- y3 0.8696970588) y8) (or (>= (- y8 0.4108765172) y3))))) 
(and (or (<= (+ x3 0.4699119899) x9) (or (<= (+ x9 0.3420872899) x3) (or (>= (- y3 0.8696970588) y9) (or (>= (- y9 0.3790085449) y3))))) 
(and (or (<= (+ x3 0.4699119899) x10) (or (<= (+ x10 0.4873660756) x3) (or (>= (- y3 0.8696970588) y10) (or (>= (- y10 0.2657909212) y3))))) 
(and (or (<= (+ x3 0.4699119899) x11) (or (<= (+ x11 0.0751347484) x3) (or (>= (- y3 0.8696970588) y11) (or (>= (- y11 0.051394222) y3))))) 
(and (or (<= (+ x4 0.2899917998) x5) (or (<= (+ x5 0.4079727731) x4) (or (>= (- y4 0.5787516384) y5) (or (>= (- y5 0.5762525918) y4))))) 
(and (or (<= (+ x4 0.2899917998) x6) (or (<= (+ x6 0.8080028425) x4) (or (>= (- y4 0.5787516384) y6) (or (>= (- y6 0.5554264261) y4))))) 
(and (or (<= (+ x4 0.2899917998) x7) (or (<= (+ x7 0.7789608268) x4) (or (>= (- y4 0.5787516384) y7) (or (>= (- y7 0.5449670412) y4))))) 
(and (or (<= (+ x4 0.2899917998) x8) (or (<= (+ x8 0.2168976438) x4) (or (>= (- y4 0.5787516384) y8) (or (>= (- y8 0.4108765172) y4))))) 
(and (or (<= (+ x4 0.2899917998) x9) (or (<= (+ x9 0.3420872899) x4) (or (>= (- y4 0.5787516384) y9) (or (>= (- y9 0.3790085449) y4))))) 
(and (or (<= (+ x4 0.2899917998) x10) (or (<= (+ x10 0.4873660756) x4) (or (>= (- y4 0.5787516384) y10) (or (>= (- y10 0.2657909212) y4))))) 
(and (or (<= (+ x4 0.2899917998) x11) (or (<= (+ x11 0.0751347484) x4) (or (>= (- y4 0.5787516384) y11) (or (>= (- y11 0.051394222) y4))))) 
(and (or (<= (+ x5 0.4079727731) x6) (or (<= (+ x6 0.8080028425) x5) (or (>= (- y5 0.5762525918) y6) (or (>= (- y6 0.5554264261) y5))))) 
(and (or (<= (+ x5 0.4079727731) x7) (or (<= (+ x7 0.7789608268) x5) (or (>= (- y5 0.5762525918) y7) (or (>= (- y7 0.5449670412) y5))))) 
(and (or (<= (+ x5 0.4079727731) x8) (or (<= (+ x8 0.2168976438) x5) (or (>= (- y5 0.5762525918) y8) (or (>= (- y8 0.4108765172) y5))))) 
(and (or (<= (+ x5 0.4079727731) x9) (or (<= (+ x9 0.3420872899) x5) (or (>= (- y5 0.5762525918) y9) (or (>= (- y9 0.3790085449) y5))))) 
(and (or (<= (+ x5 0.4079727731) x10) (or (<= (+ x10 0.4873660756) x5) (or (>= (- y5 0.5762525918) y10) (or (>= (- y10 0.2657909212) y5))))) 
(and (or (<= (+ x5 0.4079727731) x11) (or (<= (+ x11 0.0751347484) x5) (or (>= (- y5 0.5762525918) y11) (or (>= (- y11 0.051394222) y5))))) 
(and (or (<= (+ x6 0.8080028425) x7) (or (<= (+ x7 0.7789608268) x6) (or (>= (- y6 0.5554264261) y7) (or (>= (- y7 0.5449670412) y6))))) 
(and (or (<= (+ x6 0.8080028425) x8) (or (<= (+ x8 0.2168976438) x6) (or (>= (- y6 0.5554264261) y8) (or (>= (- y8 0.4108765172) y6))))) 
(and (or (<= (+ x6 0.8080028425) x9) (or (<= (+ x9 0.3420872899) x6) (or (>= (- y6 0.5554264261) y9) (or (>= (- y9 0.3790085449) y6))))) 
(and (or (<= (+ x6 0.8080028425) x10) (or (<= (+ x10 0.4873660756) x6) (or (>= (- y6 0.5554264261) y10) (or (>= (- y10 0.2657909212) y6))))) 
(and (or (<= (+ x6 0.8080028425) x11) (or (<= (+ x11 0.0751347484) x6) (or (>= (- y6 0.5554264261) y11) (or (>= (- y11 0.051394222) y6))))) 
(and (or (<= (+ x7 0.7789608268) x8) (or (<= (+ x8 0.2168976438) x7) (or (>= (- y7 0.5449670412) y8) (or (>= (- y8 0.4108765172) y7))))) 
(and (or (<= (+ x7 0.7789608268) x9) (or (<= (+ x9 0.3420872899) x7) (or (>= (- y7 0.5449670412) y9) (or (>= (- y9 0.3790085449) y7))))) 
(and (or (<= (+ x7 0.7789608268) x10) (or (<= (+ x10 0.4873660756) x7) (or (>= (- y7 0.5449670412) y10) (or (>= (- y10 0.2657909212) y7))))) 
(and (or (<= (+ x7 0.7789608268) x11) (or (<= (+ x11 0.0751347484) x7) (or (>= (- y7 0.5449670412) y11) (or (>= (- y11 0.051394222) y7))))) 
(and (or (<= (+ x8 0.2168976438) x9) (or (<= (+ x9 0.3420872899) x8) (or (>= (- y8 0.4108765172) y9) (or (>= (- y9 0.3790085449) y8))))) 
(and (or (<= (+ x8 0.2168976438) x10) (or (<= (+ x10 0.4873660756) x8) (or (>= (- y8 0.4108765172) y10) (or (>= (- y10 0.2657909212) y8))))) 
(and (or (<= (+ x8 0.2168976438) x11) (or (<= (+ x11 0.0751347484) x8) (or (>= (- y8 0.4108765172) y11) (or (>= (- y11 0.051394222) y8))))) 
(and (or (<= (+ x9 0.3420872899) x10) (or (<= (+ x10 0.4873660756) x9) (or (>= (- y9 0.3790085449) y10) (or (>= (- y10 0.2657909212) y9))))) 
(and (or (<= (+ x9 0.3420872899) x11) (or (<= (+ x11 0.0751347484) x9) (or (>= (- y9 0.3790085449) y11) (or (>= (- y11 0.051394222) y9))))) 
(and (or (<= (+ x10 0.4873660756) x11) (or (<= (+ x11 0.0751347484) x10) (or (>= (- y10 0.2657909212) y11) (or (>= (- y11 0.051394222) y10))))) )))))))))))))))))))))))))))))))))))))))))))))))))))))))))))))))))))))))))))))))))))))))))))))))))))))))))))))))))))))))))))))))))))))))))))))))))))))))))))
(minimize c)
(check-sat)
(get-objectives)
(exit)
